 ! --------------------------------------------------- CP Optimizer 22.1.1.0 --
 ! Satisfiability problem - 22200 variables, 192687 constraints
 ! Presolve      : 13500 extractables eliminated
 ! TimeLimit            = 3600
 ! Workers              = 1
 ! Initial process time : 1.68s (1.68s extraction + 0.00s propagation)
 !  . Log search space  : 226523.7 (before), 226523.7 (after)
 !  . Memory usage      : 153.0 MB (before), 153.0 MB (after)
 ! Using sequential search.
 ! ----------------------------------------------------------------------------
 !               Branches  Non-fixed            Branch decision
                     1009      21725        F          presenceOf(copy_trips:2_0)
                     2000      14751                   presenceOf(copy_lane_parking:0_159)
                     3000       8215                   presenceOf(copy_lane_parking:1_174)
                     4000      15278        F          presenceOf(copy_bus_parking:10_18)
                     5000       8148        F          presenceOf(copy_bus_parking:7_223)
                     6000       8148                   presenceOf(copy_trips:22_150)
                     7000      14136                  !presenceOf(copy_bus_parking:26_17)
                     8000      14127                   presenceOf(copy_lane_parking:0_90)
                     9000      14148                   presenceOf(copy_lane_parking:4_175)
                    10000       8060                   presenceOf(copy_bus_parking:22_210)
                    11000      14127                   presenceOf(copy_lane_parking:5_90)
                    12000      14130        F         !presenceOf(copy_bus_parking:15_224)
                    13000      11402        F          presenceOf(copy_trips:7_2)
                    14000      11302        F          presenceOf(copy_bus_parking:11_150)
                    15000       9514                  !presenceOf(copy_bus_parking:8_24)
                    16000       9514            260 != endOf(start_parking:21)
                    17000      17852                   presenceOf(copy_lane_parking:3_208)
                    18000      14148        F          presenceOf(copy_trips:0_1)
                    19000      18028        F          presenceOf(copy_bus_parking:0_61)
                    20000      18030                  !presenceOf(copy_bus_parking:5_14)
 ! Time = 16.02s, Average fail depth = 262, Memory usage = 476.4 MB
 !               Branches  Non-fixed            Branch decision
                    21000      18033        F          presenceOf(copy_bus_parking:28_15)
                    22000      14139                  !presenceOf(copy_bus_parking:17_150)
                    23000      14133                  !presenceOf(copy_trips:17_157)
                    24000       7592        F          presenceOf(copy_trips:22_158)
                    25000       7589        F          presenceOf(copy_trips:21_158)
                    26000       7589        F          presenceOf(copy_trips:26_158)
                    27000       7592                   presenceOf(copy_lane_parking:5_129)
                    28000      15178                  !presenceOf(copy_bus_parking:20_5)
                    29000      14145        F         !presenceOf(copy_trips:5_224)
                    30000      14136                   presenceOf(copy_bus_parking:8_150)
                    31000       7598                  !presenceOf(copy_trips:13_158)
                    32000       7595                   presenceOf(copy_lane_parking:2_130)
                    33000      14139        F          presenceOf(copy_bus_parking:8_224)
                    34000      14139                  !presenceOf(copy_trips:15_150)
                    35000      14133        F          presenceOf(copy_trips:28_224)
                    36000      14130                  !presenceOf(copy_bus_parking:21_150)
                    37000      14133                  !presenceOf(copy_bus_parking:4_150)
                    38000      14130                   presenceOf(copy_lane_parking:1_64)
                    39000      14118                   presenceOf(copy_lane_parking:1_180)
                    40000      14124        F          presenceOf(copy_trips:20_161)
 ! Time = 29.86s, Average fail depth = 286, Memory usage = 476.4 MB
 !               Branches  Non-fixed            Branch decision
                    41000      14124        F          presenceOf(copy_trips:20_161)
                    42000      14127        F          presenceOf(copy_trips:9_161)
                    43000      14127                  !presenceOf(copy_bus_parking:2_158)
                    44000      14127        F          presenceOf(copy_trips:17_161)
                    45000      14127        F          presenceOf(copy_trips:11_161)
                    46000      14127        F         !presenceOf(copy_bus_parking:25_224)
                    47000      14127        F          presenceOf(copy_trips:25_157)
                    48000      14124        F         !presenceOf(copy_bus_parking:25_224)
                    49000      14124        F          presenceOf(copy_trips:9_161)
                    50000      14124        F          presenceOf(copy_trips:9_161)
                    51000      14124        F          presenceOf(copy_trips:18_161)
                    52000      14127        F         !presenceOf(copy_bus_parking:25_224)
                    53000      14127                   presenceOf(copy_bus_parking:11_75)
                    54000       7612                  !presenceOf(copy_trips:0_24)
                    55000      16129                  !presenceOf(copy_trips:15_24)
                    56000      16129                  !presenceOf(copy_trips:12_24)
                    57000      16129                   presenceOf(copy_lane_parking:4_49)
                    58000       7580        F          presenceOf(copy_trips:12_150)
                    59000       7580                   presenceOf(copy_trips:17_150)
                    60000      14133                   presenceOf(copy_trips:20_150)
 ! Time = 37.67s, Average fail depth = 290, Memory usage = 476.4 MB
 !               Branches  Non-fixed            Branch decision
                    61000      14133        F         !presenceOf(copy_bus_parking:3_224)
                    62000      14133        F          presenceOf(copy_trips:1_150)
                    63000      14139                  !presenceOf(copy_trips:6_150)
                    64000       9814                   presenceOf(copy_lane_parking:4_120)
                    65000       7601                   presenceOf(copy_trips:22_178)
                    66000       7585        F          presenceOf(copy_bus_parking:10_150)
                    67000       7585                   presenceOf(copy_lane_parking:4_35)
                    68000       7583                   presenceOf(copy_lane_parking:2_156)
                    69000      14115                  !presenceOf(copy_trips:21_17)
                    70000      14130        F          presenceOf(copy_bus_parking:1_224)
                    71000      14136                  !presenceOf(copy_trips:19_18)
                    72000       7612                  !presenceOf(copy_trips:24_157)
                    73000       7612        F          presenceOf(copy_bus_parking:1_150)
                    74000       7612        F          presenceOf(copy_bus_parking:2_150)
                    75000       7612        F          presenceOf(copy_trips:5_219)
                    76000      14103        F         !presenceOf(copy_trips:28_224)
                    77000      14109                   presenceOf(copy_bus_parking:17_150)
                    78000      14103        F         !presenceOf(copy_trips:28_224)
                    79000      14109                  !presenceOf(copy_trips:7_158)
                    80000      14106        F          presenceOf(copy_trips:28_224)
 ! Time = 51.09s, Average fail depth = 299, Memory usage = 476.4 MB
 !               Branches  Non-fixed            Branch decision
                    81000      14106                  !presenceOf(copy_trips:24_224)
                    82000      14106                   presenceOf(copy_bus_parking:25_150)
                    83000      14103                   presenceOf(copy_bus_parking:27_150)
                    84000      14100        F          presenceOf(copy_bus_parking:19_150)
                    85000      14097                  !presenceOf(copy_trips:24_224)
                    86000      14100        F         !presenceOf(copy_trips:28_224)
                    87000      14100                  !presenceOf(copy_trips:24_224)
                    88000      14106                   presenceOf(copy_lane_parking:3_190)
                    89000       9124        F          presenceOf(copy_bus_parking:0_21)
                    90000       9375                   presenceOf(copy_bus_parking:12_5)
                    91000      14136                   presenceOf(copy_trips:5_157)
                    92000      14112                  !presenceOf(copy_trips:1_158)
                    93000      14118                   presenceOf(copy_lane_parking:3_23)
                    94000       7628                   presenceOf(copy_lane_parking:0_197)
                    95000      14124                  !presenceOf(copy_trips:24_224)
                    96000      14127        F          presenceOf(copy_bus_parking:12_1)
                    97000      18061        F         !presenceOf(copy_trips:1_32)
                    98000      18061                  !presenceOf(copy_trips:16_32)
                    99000      18052                  !presenceOf(copy_trips:28_32)
                     100k      18052                   presenceOf(copy_lane_parking:3_206)
 ! Time = 63.59s, Average fail depth = 298, Memory usage = 477.0 MB
 !               Branches  Non-fixed            Branch decision
                     101k      14866                  !presenceOf(copy_trips:7_9)
                     102k      14869        F          presenceOf(copy_bus_parking:25_17)
                     103k      14899        F          presenceOf(copy_trips:17_9)
                     104k       9523                  !presenceOf(copy_trips:24_24)
                     105k       9523                   presenceOf(copy_trips:0_151)
                     106k      14118                  !presenceOf(copy_bus_parking:4_224)
                     107k      14118                  !presenceOf(copy_bus_parking:29_150)
                     108k      14118                  !presenceOf(copy_bus_parking:4_224)
                     109k      14118        F          presenceOf(copy_bus_parking:16_224)
                     110k      14118                   presenceOf(copy_bus_parking:14_150)
                     111k      14118        F         !presenceOf(copy_bus_parking:16_224)
                     112k      14118        F         !presenceOf(copy_bus_parking:16_224)
                     113k      14118                   presenceOf(copy_bus_parking:29_150)
                     114k      14118        F         !presenceOf(copy_bus_parking:16_224)
                     115k      14118        F         !presenceOf(copy_bus_parking:16_224)
                     116k      14118                  !presenceOf(copy_bus_parking:4_224)
                     117k      14118        F          presenceOf(copy_bus_parking:4_224)
                     118k      14118                   presenceOf(copy_lane_parking:2_188)
                     119k       7808                   presenceOf(copy_lane_parking:2_114)
                     120k      13345                  !presenceOf(copy_trips:6_2)
 ! Time = 76.84s, Average fail depth = 299, Memory usage = 477.0 MB
 !               Branches  Non-fixed            Branch decision
                     121k      11509                  !presenceOf(copy_bus_parking:20_150)
                     122k      14142                   presenceOf(copy_lane_parking:4_141)
                     123k       9381        F          presenceOf(copy_trips:1_24)
                     124k       9514                   presenceOf(copy_bus_parking:28_150)
                     125k      14136                  !presenceOf(copy_bus_parking:26_13)
                     126k      14905        F          presenceOf(copy_bus_parking:19_40)
                     127k      14905        F          presenceOf(copy_trips:5_6)
                     128k      11487        F         !presenceOf(copy_trips:0_5)
                     129k      11467                   presenceOf(copy_lane_parking:3_69)
                     130k      11318                   presenceOf(copy_lane_parking:4_118)
                     131k      15172                  !presenceOf(copy_trips:27_19)
                     132k      14130                  !presenceOf(copy_trips:10_150)
                     133k       7598                   presenceOf(copy_lane_parking:3_142)
                     134k      20026        F          presenceOf(copy_trips:9_1)
                     135k      19934                  !presenceOf(copy_trips:11_5)
                     136k      19934        F         !presenceOf(copy_trips:6_1)
                     137k      19934        F          presenceOf(copy_trips:9_1)
                     138k      19934        F          presenceOf(copy_bus_parking:8_3)
                     139k      19934        F         !presenceOf(copy_trips:5_1)
                     140k      19934                  !presenceOf(copy_trips:6_1)
 ! Time = 90.58s, Average fail depth = 294, Memory usage = 477.3 MB
 !               Branches  Non-fixed            Branch decision
                     141k      19934                  !presenceOf(copy_trips:24_1)
                     142k      19934        F          presenceOf(copy_bus_parking:14_3)
                     143k      19931        F         !presenceOf(copy_trips:9_1)
                     144k      19931                  !presenceOf(copy_trips:22_1)
                     145k      19931                   presenceOf(copy_bus_parking:18_3)
                     146k      19931                   presenceOf(copy_lane_parking:5_10)
                     147k       7601                   presenceOf(copy_trips:3_99)
                     148k       7573        F          presenceOf(copy_trips:12_158)
                     149k       7573                  !presenceOf(copy_bus_parking:3_24)
                     150k       9517        F          presenceOf(copy_bus_parking:13_16)
                     151k      15351                  !presenceOf(copy_bus_parking:8_26)
                     152k      15351                  !presenceOf(copy_trips:17_18)
                     153k      15351        F          presenceOf(copy_trips:29_4)
                     154k      14199                  !presenceOf(copy_trips:16_26)
                     155k      15381                   presenceOf(copy_bus_parking:24_40)
                     156k      15381                  !presenceOf(copy_bus_parking:10_18)
                     157k      15384                  !presenceOf(copy_bus_parking:25_21)
                     158k      14124        F          presenceOf(copy_trips:12_56)
                     159k      15002                  !presenceOf(copy_bus_parking:17_9)
                     160k      14133        F         !presenceOf(copy_trips:27_0)
 ! Time = 102.77s, Average fail depth = 291, Memory usage = 477.4 MB
 !               Branches  Non-fixed            Branch decision
                     161k      15351                  !presenceOf(copy_bus_parking:10_40)
                     162k      11669                   presenceOf(copy_bus_parking:14_42)
                     163k       9317                   presenceOf(copy_lane_parking:3_75)
                     164k      14145        F          presenceOf(copy_bus_parking:21_26)
                     165k      15266                  !presenceOf(copy_bus_parking:1_1)
                     166k      12685                   presenceOf(copy_lane_parking:1_40)
                     167k       7610                   presenceOf(copy_trips:13_95)
                     168k       9517                   presenceOf(copy_lane_parking:5_18)
                     169k       7616        F          presenceOf(copy_trips:1_224)
                     170k      14124                  !presenceOf(copy_trips:19_10)
                     171k      17951                  !presenceOf(copy_trips:15_2)
                     172k      17894                  !presenceOf(copy_trips:2_2)
                     173k      17894        F          presenceOf(copy_trips:2_2)
                     174k      14136        F          presenceOf(copy_trips:12_0)
                     175k      14024                   presenceOf(copy_bus_parking:1_198)
                     176k       7597                   presenceOf(copy_lane_parking:0_199)
                     177k      18007        F          presenceOf(copy_trips:23_2)
                     178k      18005        F         !presenceOf(copy_trips:3_0)
                     179k      17928        F          presenceOf(copy_trips:3_0)
                     180k      17925        F         !presenceOf(copy_trips:23_2)
 ! Time = 112.48s, Average fail depth = 288, Memory usage = 477.4 MB
 !               Branches  Non-fixed            Branch decision
                     181k      17925                  !presenceOf(copy_trips:28_2)
                     182k      17925        F          presenceOf(copy_trips:13_3)
                     183k      17925                  !presenceOf(copy_trips:5_2)
                     184k      17925                  !presenceOf(copy_trips:15_2)
                     185k      17925                  !presenceOf(copy_trips:13_2)
                     186k      17925                  !presenceOf(copy_trips:21_2)
                     187k      17927                   presenceOf(copy_trips:17_36)
                     188k      17925                  !presenceOf(copy_trips:4_2)
                     189k      17925                   presenceOf(copy_lane_parking:3_217)
                     190k      14148        F          presenceOf(copy_bus_parking:26_150)
                     191k      14148                   presenceOf(copy_bus_parking:17_150)
                     192k      14148        F         !presenceOf(copy_bus_parking:0_224)
                     193k      14148        F         !presenceOf(copy_trips:26_224)
                     194k      14148        F         !presenceOf(copy_trips:26_224)
                     195k      14148                   presenceOf(copy_bus_parking:5_150)
                     196k      14148                   presenceOf(copy_lane_parking:4_159)
                     197k      14903                  !presenceOf(copy_bus_parking:19_13)
                     198k      14897                  !presenceOf(copy_bus_parking:7_13)
                     199k      14897                  !presenceOf(copy_bus_parking:17_13)
                     200k      14897                   presenceOf(copy_trips:23_9)
 ! Time = 124.09s, Average fail depth = 287, Memory usage = 477.4 MB
 !               Branches  Non-fixed            Branch decision
                     201k      14914                  !presenceOf(copy_bus_parking:4_13)
                     202k      14903                  !presenceOf(copy_bus_parking:10_17)
                     203k      14897                  !presenceOf(copy_bus_parking:16_13)
                     204k      14897        F          presenceOf(copy_trips:19_9)
                     205k      14897        F          presenceOf(copy_trips:12_9)
                     206k      14914        F          presenceOf(copy_trips:19_9)
                     207k      14903                  !presenceOf(copy_bus_parking:12_13)
                     208k      14897                  !presenceOf(copy_bus_parking:15_13)
                     209k      14897                  !presenceOf(copy_bus_parking:18_13)
                     210k      14914                  !presenceOf(copy_trips:5_17)
                     211k      14735        F          presenceOf(copy_bus_parking:10_13)
                     212k      14722        F          presenceOf(copy_bus_parking:5_14)
                     213k      14735                  !presenceOf(copy_bus_parking:0_13)
                     214k      14735                  !presenceOf(copy_bus_parking:1_13)
                     215k      14722        F          presenceOf(copy_bus_parking:27_14)
                     216k      14722        F          presenceOf(copy_bus_parking:25_16)
                     217k      14722                  !presenceOf(copy_bus_parking:20_13)
                     218k      14722        F          presenceOf(copy_bus_parking:7_13)
                     219k      14735                  !presenceOf(copy_bus_parking:18_13)
                     220k      14735        F          presenceOf(copy_bus_parking:18_38)
 ! Time = 133.25s, Average fail depth = 287, Memory usage = 477.4 MB
 !               Branches  Non-fixed            Branch decision
                     221k      14738        F          presenceOf(copy_bus_parking:1_26)
                     222k      14733                  !presenceOf(copy_bus_parking:13_13)
                     223k      14722        F          presenceOf(copy_trips:1_0)
                     224k      15460        F          presenceOf(copy_trips:16_26)
                     225k      14730                   presenceOf(copy_lane_parking:4_74)
                     226k       7601        F          presenceOf(copy_bus_parking:29_150)
                     227k       7601                  !presenceOf(copy_trips:11_158)
                     228k       7601                  !presenceOf(copy_trips:24_158)
                     229k       7601        F          presenceOf(copy_trips:12_220)
                     230k       7601        F          presenceOf(copy_trips:24_157)
                     231k       7601        F          presenceOf(copy_trips:13_157)
                     232k       7601                  !presenceOf(copy_trips:29_158)
                     233k       7601                  !presenceOf(copy_trips:5_161)
                     234k       7601                  !presenceOf(copy_trips:0_161)
                     235k       7601        F          presenceOf(copy_trips:23_157)
                     236k       7601                  !presenceOf(copy_trips:27_161)
                     237k       7601                  !presenceOf(copy_trips:1_161)
                     238k       7601                  !presenceOf(copy_trips:10_158)
                     239k       7601                  !presenceOf(copy_trips:22_158)
                     240k       7601                  !presenceOf(copy_trips:5_158)
 ! Time = 138.19s, Average fail depth = 293, Memory usage = 477.8 MB
 !               Branches  Non-fixed            Branch decision
                     241k       7601        F          presenceOf(copy_trips:16_220)
                     242k       7601                  !presenceOf(copy_trips:12_158)
                     243k       7601                  !presenceOf(copy_trips:25_158)
                     244k       7601                  !presenceOf(copy_trips:8_158)
                     245k       7601                  !presenceOf(copy_trips:22_158)
                     246k       7601                  !presenceOf(copy_trips:10_158)
                     247k       7601                  !presenceOf(copy_trips:0_158)
                     248k       7601                  !presenceOf(copy_trips:28_158)
                     249k       7601        F          presenceOf(copy_trips:10_157)
                     250k       7601        F          presenceOf(copy_trips:5_157)
                     251k       7601        F         !presenceOf(copy_trips:24_158)
                     252k       7601                  !presenceOf(copy_trips:23_157)
                     253k       7601        F          presenceOf(copy_trips:11_158)
                     254k       7601                  !presenceOf(copy_trips:6_158)
                     255k       7601                  !presenceOf(copy_trips:12_158)
                     256k       7601                   presenceOf(copy_trips:4_158)
                     257k       7601        F          presenceOf(copy_trips:10_157)
                     258k       7601                  !presenceOf(copy_trips:2_158)
                     259k       7601                   presenceOf(copy_trips:15_157)
                     260k       7601        F          presenceOf(copy_trips:23_157)
 ! Time = 140.55s, Average fail depth = 301, Memory usage = 477.8 MB
 !               Branches  Non-fixed            Branch decision
                     261k       7601                  !presenceOf(copy_trips:17_157)
                     262k       7601        F          presenceOf(copy_trips:17_157)
                     263k       7601        F          presenceOf(copy_trips:20_158)
                     264k       7601        F         !presenceOf(copy_bus_parking:18_150)
                     265k       7601        F          presenceOf(copy_bus_parking:18_150)
                     266k       7601        F          presenceOf(copy_bus_parking:18_150)
                     267k       7601        F          presenceOf(copy_bus_parking:18_150)
                     268k       7601        F          presenceOf(copy_bus_parking:29_150)
                     269k       7601        F          presenceOf(copy_trips:28_158)
                     270k       7601                  !presenceOf(copy_trips:29_158)
                     271k       7601                  !presenceOf(copy_trips:10_158)
                     272k       7601                  !presenceOf(copy_trips:15_157)
                     273k       7601        F          presenceOf(copy_trips:8_220)
                     274k       7601        F          presenceOf(copy_bus_parking:23_150)
                     275k       7601                  !presenceOf(copy_trips:16_158)
                     276k       7601        F          presenceOf(copy_trips:2_158)
                     277k       7601                   presenceOf(copy_bus_parking:10_162)
                     278k       7601        F          presenceOf(copy_trips:9_150)
                     279k       7601        F          presenceOf(copy_trips:15_150)
                     280k       7601        F          presenceOf(copy_trips:9_150)
 ! Time = 143.36s, Average fail depth = 307, Memory usage = 477.8 MB
 !               Branches  Non-fixed            Branch decision
                     281k       7604                   presenceOf(copy_bus_parking:19_150)
                     282k      14118        F         !presenceOf(copy_trips:2_224)
                     283k      14118        F         !presenceOf(copy_trips:2_224)
                     284k      14118        F         !presenceOf(copy_trips:2_224)
                     285k      14118        F         !presenceOf(copy_trips:2_224)
                     286k      14118        F         !presenceOf(copy_trips:2_224)
                     287k      14118                   presenceOf(copy_bus_parking:18_150)
                     288k      14118                   presenceOf(copy_bus_parking:3_150)
                     289k      14118                  !presenceOf(copy_bus_parking:12_150)
                     290k      14115        F         !presenceOf(copy_trips:2_224)
                     291k      14118        F         !presenceOf(copy_trips:2_224)
                     292k      14115        F         !presenceOf(copy_trips:2_224)
                     293k      14121                  !presenceOf(copy_trips:24_152)
                     294k      14118        F         !presenceOf(copy_trips:2_224)
                     295k      14121        F         !presenceOf(copy_trips:2_224)
                     296k      14118        F         !presenceOf(copy_trips:2_224)
                     297k      14121        F         !presenceOf(copy_trips:2_224)
                     298k      14115        F         !presenceOf(copy_trips:2_224)
                     299k      14118        F         !presenceOf(copy_trips:2_224)
                     300k      14115                  !presenceOf(copy_trips:10_224)
 ! Time = 160.25s, Average fail depth = 307, Memory usage = 477.8 MB
 !               Branches  Non-fixed            Branch decision
                     301k      14115                   presenceOf(copy_bus_parking:15_150)
                     302k      14115                  !presenceOf(copy_trips:10_224)
                     303k      14115                   presenceOf(copy_bus_parking:13_150)
                     304k      14115                  !presenceOf(copy_trips:10_224)
                     305k      14118                   presenceOf(copy_bus_parking:23_150)
                     306k      14118        F          presenceOf(copy_trips:10_224)
                     307k      14118                   presenceOf(copy_bus_parking:10_150)
                     308k      14118                   presenceOf(copy_bus_parking:13_150)
                     309k      14118                   presenceOf(copy_bus_parking:26_150)
                     310k      14121                   presenceOf(copy_bus_parking:26_150)
                     311k      14115                   presenceOf(copy_bus_parking:1_150)
                     312k      14118                   presenceOf(copy_bus_parking:19_150)
                     313k      14115                  !presenceOf(copy_bus_parking:20_150)
                     314k      14121                  !presenceOf(copy_bus_parking:15_150)
                     315k      14118        F         !presenceOf(copy_trips:2_224)
                     316k      14118        F         !presenceOf(copy_trips:2_224)
                     317k      14118        F         !presenceOf(copy_trips:2_224)
                     318k      14118                   presenceOf(copy_bus_parking:3_150)
                     319k      14118        F         !presenceOf(copy_trips:2_224)
                     320k      14118        F         !presenceOf(copy_trips:2_224)
 ! Time = 177.17s, Average fail depth = 307, Memory usage = 477.8 MB
 !               Branches  Non-fixed            Branch decision
                     321k      14118        F         !presenceOf(copy_trips:2_224)
                     322k      14118        F         !presenceOf(copy_trips:2_224)
                     323k      14118                  !presenceOf(copy_bus_parking:25_150)
                     324k      14118        F         !presenceOf(copy_trips:2_224)
                     325k      14118                  !presenceOf(copy_trips:19_152)
                     326k      14115        F         !presenceOf(copy_trips:2_224)
                     327k      14118        F         !presenceOf(copy_trips:2_224)
                     328k      14115        F         !presenceOf(copy_trips:2_224)
                     329k      14121        F         !presenceOf(copy_trips:2_224)
                     330k      14118        F         !presenceOf(copy_trips:2_224)
                     331k      14118        F         !presenceOf(copy_trips:2_224)
                     332k      14115                   presenceOf(copy_bus_parking:28_211)
                     333k      14130                   presenceOf(copy_trips:7_150)
                     334k      14130                   presenceOf(copy_trips:3_150)
                     335k      14127                   presenceOf(copy_trips:9_157)
                     336k      14136                   presenceOf(copy_trips:19_150)
                     337k      14136                  !presenceOf(copy_bus_parking:3_161)
                     338k      14133        F         !presenceOf(copy_trips:11_224)
                     339k      14136        F         !presenceOf(copy_trips:9_224)
                     340k      14133        F          presenceOf(copy_trips:21_150)
 ! Time = 194.61s, Average fail depth = 307, Memory usage = 477.8 MB
 !               Branches  Non-fixed            Branch decision
                     341k      14133                  !presenceOf(copy_bus_parking:4_161)
                     342k      14133                  !presenceOf(copy_bus_parking:17_161)
                     343k      14130                   presenceOf(copy_trips:29_150)
                     344k      14130        F         !presenceOf(copy_bus_parking:28_161)
                     345k      14130        F         !presenceOf(copy_trips:11_224)
                     346k      14127                   presenceOf(copy_trips:22_150)
                     347k      14127                  !presenceOf(copy_bus_parking:14_161)
                     348k      14136                  !presenceOf(copy_bus_parking:9_161)
                     349k      14136        F         !presenceOf(copy_trips:9_224)
                     350k      14133        F         !presenceOf(copy_trips:9_224)
                     351k      14127        F         !presenceOf(copy_trips:9_224)
                     352k      14127        F         !presenceOf(copy_trips:9_224)
                     353k      14133        F         !presenceOf(copy_trips:9_224)
                     354k      14127                  !presenceOf(copy_trips:11_150)
                     355k      14130                  !presenceOf(copy_trips:22_150)
                     356k      14127                  !presenceOf(copy_trips:18_150)
                     357k      14130        F          presenceOf(copy_trips:27_150)
                     358k      14130        F          presenceOf(copy_trips:9_224)
                     359k      14127                   presenceOf(copy_trips:11_150)
                     360k      14133                   presenceOf(copy_trips:16_150)
 ! Time = 213.01s, Average fail depth = 306, Memory usage = 477.8 MB
 !               Branches  Non-fixed            Branch decision
                     361k      14130                   presenceOf(copy_trips:16_150)
                     362k      14130                   presenceOf(copy_trips:3_150)
                     363k      14136                   presenceOf(copy_trips:24_150)
                     364k      14136        F         !presenceOf(copy_trips:9_224)
                     365k      14133        F         !presenceOf(copy_trips:9_224)
                     366k      14136        F         !presenceOf(copy_trips:24_224)
                     367k      14133                   presenceOf(copy_trips:2_150)
                     368k      14133                   presenceOf(copy_trips:16_150)
                     369k      14130                   presenceOf(copy_trips:23_150)
                     370k      14127                   presenceOf(copy_trips:26_150)
                     371k      14127        F          presenceOf(copy_trips:8_150)
                     372k      14136                   presenceOf(copy_trips:24_150)
                     373k      14136        F         !presenceOf(copy_trips:9_224)
                     374k      14133        F          presenceOf(copy_trips:21_150)
                     375k      14127                  !presenceOf(copy_bus_parking:29_161)
                     376k      14127        F         !presenceOf(copy_trips:9_224)
                     377k      14133        F         !presenceOf(copy_trips:9_224)
                     378k      14127        F          presenceOf(copy_bus_parking:14_161)
                     379k      14133                  !presenceOf(copy_trips:26_150)
                     380k      14127                   presenceOf(copy_trips:27_150)
 ! Time = 231.21s, Average fail depth = 306, Memory usage = 477.8 MB
 !               Branches  Non-fixed            Branch decision
                     381k      14130        F          presenceOf(copy_trips:9_224)
                     382k      14124                   presenceOf(copy_trips:3_150)
                     383k      14127                   presenceOf(copy_trips:4_157)
                     384k       7601                  !presenceOf(copy_bus_parking:3_157)
                     385k       7601                   presenceOf(copy_trips:9_43)
                     386k       7607        F          presenceOf(copy_bus_parking:24_150)
                     387k       7607        F   on charge:17_63
                     388k       9093        F          presenceOf(copy_trips:3_77)
                     389k       7652                   presenceOf(copy_lane_parking:0_219)
                     390k       7706        F          presenceOf(copy_trips:21_158)
                     391k      14142                   presenceOf(copy_lane_parking:2_108)
                     392k      14127                   presenceOf(copy_lane_parking:4_72)
                     393k      15260                   presenceOf(copy_trips:3_2)
                     394k      13500                  !presenceOf(copy_trips:4_150)
                     395k      14124           1199  = startOf(charge:15_25)
                     396k       7331                  !presenceOf(copy_trips:25_56)
                     397k      11684        F          presenceOf(copy_trips:5_24)
                     398k      12435            on charge:19_77
                     399k       1995                  !presenceOf(copy_trips:16_205)
 *                   399k  244.71s                   -
 ! Time = 244.71s, Average fail depth = 305, Memory usage = 528.0 MB
 !               Branches  Non-fixed            Branch decision
 ! ----------------------------------------------------------------------------
 ! Search completed, 1 solution found.
 ! ----------------------------------------------------------------------------
 ! Number of branches     : 399294
 ! Number of fails        : 177157
 ! Total memory usage     : 541.7 MB (528.0 MB CP Optimizer + 13.7 MB Concert)
 ! Time spent in solve    : 244.71s (243.03s engine + 1.68s extraction)
 ! Search speed (br. / s) : 1643.0
 ! ----------------------------------------------------------------------------
